<number of tasks>
250

<cycle time>
1000

<order strength>
0.595


<task times>
1 112
2 179
3 116
4 163
5 82
6 162
7 249
8 135
9 22
10 33
11 86
12 94
13 106
14 105
15 189
16 109
17 26
18 177
19 134
20 46
21 104
22 185
23 176
24 23
25 120
26 92
27 267
28 128
29 177
30 40
31 191
32 141
33 156
34 99
35 83
36 126
37 152
38 109
39 79
40 122
41 36
42 50
43 273
44 208
45 163
46 58
47 30
48 53
49 21
50 136
51 229
52 54
53 105
54 36
55 192
56 86
57 240
58 63
59 236
60 181
61 308
62 80
63 247
64 303
65 279
66 164
67 73
68 43
69 177
70 282
71 170
72 174
73 69
74 97
75 131
76 108
77 66
78 262
79 52
80 21
81 67
82 66
83 144
84 237
85 161
86 161
87 86
88 132
89 117
90 180
91 211
92 117
93 50
94 87
95 55
96 151
97 101
98 240
99 41
100 141
101 222
102 96
103 326
104 140
105 146
106 46
107 150
108 159
109 65
110 169
111 185
112 54
113 25
114 143
115 119
116 155
117 34
118 94
119 41
120 131
121 324
122 117
123 191
124 39
125 199
126 245
127 219
128 209
129 111
130 68
131 56
132 53
133 78
134 98
135 163
136 149
137 144
138 68
139 198
140 57
141 166
142 191
143 140
144 137
145 112
146 54
147 178
148 334
149 75
150 30
151 122
152 58
153 373
154 111
155 80
156 31
157 228
158 50
159 160
160 218
161 57
162 64
163 72
164 238
165 50
166 162
167 82
168 231
169 29
170 71
171 170
172 50
173 226
174 93
175 242
176 38
177 137
178 79
179 186
180 214
181 55
182 152
183 47
184 157
185 138
186 156
187 137
188 107
189 221
190 161
191 113
192 137
193 151
194 27
195 128
196 182
197 35
198 128
199 62
200 313
201 104
202 42
203 144
204 123
205 41
206 111
207 131
208 70
209 25
210 166
211 38
212 177
213 95
214 147
215 303
216 104
217 194
218 118
219 47
220 286
221 159
222 43
223 163
224 144
225 242
226 133
227 96
228 62
229 86
230 169
231 143
232 26
233 81
234 130
235 84
236 169
237 39
238 44
239 134
240 26
241 217
242 259
243 71
244 30
245 164
246 185
247 65
248 69
249 190
250 187

<precedence relations>
1,117
2,217
3,118
4,53
5,53
6,53
7,97
8,97
9,13
9,16
9,39
10,11
10,12
10,14
10,15
10,17
10,18
10,19
10,20
11,217
12,31
13,118
14,53
15,53
16,53
17,53
18,53
19,55
20,21
20,22
20,23
20,24
20,25
20,26
20,27
20,28
20,29
21,117
22,31
23,31
24,31
25,31
26,53
27,53
28,30
28,32
28,33
28,34
28,36
29,35
29,37
29,38
29,71
30,217
31,39
31,40
31,41
31,42
31,43
31,44
31,45
31,46
31,47
31,48
31,49
31,50
32,53
33,53
34,53
35,55
36,55
37,176
38,39
38,53
39,217
40,53
41,53
42,53
43,53
44,53
45,242
46,55
47,51
47,52
47,54
47,56
47,88
48,53
49,53
50,51
50,56
50,57
50,58
50,59
50,60
51,117
52,178
53,62
53,63
53,64
53,65
53,66
54,97
55,67
55,68
55,69
55,70
55,80
56,176
57,176
58,61
58,71
59,71
59,80
60,83
60,119
61,148
62,72
62,73
62,79
63,74
63,77
64,72
64,74
64,84
64,110
65,97
66,74
66,112
67,72
67,79
67,92
68,72
69,72
69,75
69,76
69,89
70,73
70,85
70,96
70,146
71,100
72,118
73,144
74,178
75,176
76,79
77,78
77,80
77,81
78,117
79,118
80,97
81,82
81,83
81,84
81,85
81,86
81,87
82,117
83,118
84,231
85,148
86,97
87,88
87,89
87,90
87,91
87,92
87,93
88,144
89,144
90,242
91,97
92,95
92,97
92,98
92,99
92,100
93,94
93,96
93,98
93,119
94,117
95,148
96,178
97,101
97,102
97,103
97,104
97,105
97,106
97,107
98,108
98,212
100,120
100,173
101,144
102,111
102,114
102,115
102,116
103,109
104,113
104,119
105,110
105,112
105,115
105,116
106,110
107,118
108,243
109,117
110,117
111,117
112,118
113,231
114,122
114,196
115,122
115,123
116,117
116,119
116,120
116,121
117,124
117,125
117,126
117,127
117,128
118,129
118,130
118,131
118,132
118,133
118,134
118,135
118,136
118,137
118,138
118,139
118,140
118,162
119,148
120,144
121,176
122,141
122,143
122,174
123,172
124,144
125,142
126,174
127,163
129,207
129,216
130,172
130,206
131,144
131,145
133,143
133,177
134,142
134,174
134,196
134,206
135,174
137,234
138,207
139,147
139,196
141,142
141,146
142,148
143,148
144,149
144,150
144,151
144,152
144,153
144,154
144,155
144,156
144,157
144,158
144,159
144,160
144,161
145,163
145,178
145,196
145,206
146,162
146,176
147,249
148,164
148,165
148,166
148,167
148,168
149,249
149,250
150,234
151,177
153,170
154,169
155,175
157,213
158,211
160,171
161,170
161,214
161,215
162,209
163,218
164,179
164,214
166,173
167,172
167,173
168,175
168,243
169,176
170,175
171,172
171,174
171,176
171,177
172,178
173,178
174,178
175,242
176,180
176,181
176,182
176,183
176,184
176,185
176,186
176,187
176,188
176,189
176,190
176,191
176,192
176,193
176,194
176,195
177,178
177,179
177,196
177,206
178,197
178,198
178,199
178,200
178,201
178,202
178,203
178,204
178,205
179,242
181,231
183,249
184,212
185,249
186,211
187,211
188,207
188,219
189,206
190,209
191,211
192,216
193,212
195,230
197,209
198,219
200,207
200,208
200,230
202,209
203,209
204,208
204,218
204,231
206,216
206,219
206,231
207,231
208,242
209,210
209,211
210,215
210,217
211,212
212,213
212,214
212,215
212,216
213,217
214,218
215,219
217,220
217,221
217,222
217,223
217,224
217,225
217,226
217,227
217,228
217,229
218,230
220,231
221,234
221,242
222,233
223,231
224,232
225,234
228,234
228,242
231,235
231,236
231,237
231,238
231,239
231,240
231,241
231,243
232,242
236,248
238,249
242,244
242,245
242,246
242,247
242,249
245,250

<end>
